; benchmark generated from python API
(set-info :status unknown)
(declare-fun x_month () (_ BitVec 32))
(declare-fun x_year () (_ BitVec 32))
(declare-fun x_day () (_ BitVec 32))
(declare-fun y_month () (_ BitVec 32))
(declare-fun y_year () (_ BitVec 32))
(declare-fun y_day () (_ BitVec 32))
(assert
 (let (($x4083 (or (= (_ bv4 32) x_month) (= (_ bv6 32) x_month) (= (_ bv9 32) x_month) (= (_ bv11 32) x_month))))
 (let (($x5602 (and (= (_ bv0 32) (bvsmod x_year (_ bv4 32))) (and (distinct (_ bv0 32) (bvsmod x_year (_ bv100 32))) true))))
 (let (($x4213 (= (_ bv2 32) x_month)))
 (let ((?x1655 (ite $x4213 (ite (or $x5602 (= (_ bv0 32) (bvsmod x_year (_ bv400 32)))) (_ bv29 32) (_ bv28 32)) (ite $x4083 (_ bv30 32) (_ bv31 32)))))
 (let (($x4190 (bvsle x_day ?x1655)))
 (let (($x3972 (bvsle (_ bv1 32) x_day)))
 (let (($x4881 (bvsle (_ bv1 32) x_month)))
 (let (($x3104 (bvsge (_ bv12 32) x_month)))
 (let (($x837 (bvsle (_ bv1901 32) x_year)))
 (or (and (= (_ bv1900 32) x_year) (bvsle (_ bv3 32) x_month) $x3104 $x3972 $x4190) (and $x837 (bvsge (_ bv2099 32) x_year) $x4881 $x3104 $x3972 $x4190) (and (= (_ bv2100 32) x_year) $x4881 (bvsge (_ bv2 32) x_month) $x3972 $x4190))))))))))))
(assert
 (let (($x5078 (or (= (_ bv4 32) y_month) (= (_ bv6 32) y_month) (= (_ bv9 32) y_month) (= (_ bv11 32) y_month))))
 (let (($x2069 (and (= (_ bv0 32) (bvsmod y_year (_ bv4 32))) (and (distinct (_ bv0 32) (bvsmod y_year (_ bv100 32))) true))))
 (let (($x5521 (= (_ bv2 32) y_month)))
 (let ((?x3430 (ite $x5521 (ite (or $x2069 (= (_ bv0 32) (bvsmod y_year (_ bv400 32)))) (_ bv29 32) (_ bv28 32)) (ite $x5078 (_ bv30 32) (_ bv31 32)))))
 (let (($x931 (bvsle y_day ?x3430)))
 (let (($x1311 (bvsle (_ bv1 32) y_day)))
 (let (($x1329 (bvsle (_ bv1 32) y_month)))
 (let (($x4731 (bvsge (_ bv12 32) y_month)))
 (let (($x5311 (bvsle (_ bv1901 32) y_year)))
 (or (and (= (_ bv1900 32) y_year) (bvsle (_ bv3 32) y_month) $x4731 $x1311 $x931) (and $x5311 (bvsge (_ bv2099 32) y_year) $x1329 $x4731 $x1311 $x931) (and (= (_ bv2100 32) y_year) $x1329 (bvsge (_ bv2 32) y_month) $x1311 $x931))))))))))))
(assert
 (let (($x4213 (= (_ bv2 32) x_month)))
 (and (= (_ bv2020 32) x_year) $x4213 (= (_ bv29 32) x_day))))
(assert
 (let ((?x652 (bvadd x_month (bvadd (bvmul (_ bv1 32) (_ bv12 32)) (_ bv0 32)))))
 (let ((?x5337 (bvsub (ite (bvuge ?x652 (_ bv2147483648 32)) (bvsub ?x652 (_ bv0 32)) ?x652) (_ bv1 32))))
 (let ((?x4666 (bvsmod ?x5337 (_ bv12 32))))
 (let ((?x6002 (bvadd ?x4666 (_ bv1 32))))
 (let (($x2472 (= (_ bv11 32) ?x6002)))
 (let (($x4899 (= (_ bv9 32) ?x6002)))
 (let (($x2130 (= (_ bv6 32) ?x6002)))
 (let (($x4339 (= (_ bv4 32) ?x6002)))
 (let ((?x2810 (bvsdiv ?x5337 (_ bv12 32))))
 (let ((?x2485 (ite (and (bvuge ?x5337 (_ bv2147483648 32)) (and (distinct (_ bv0 32) ?x4666) true)) (bvsub ?x2810 (_ bv1 32)) ?x2810)))
 (let ((?x496 (bvadd x_year ?x2485)))
 (let (($x3611 (or (and (= (_ bv0 32) (bvsmod ?x496 (_ bv4 32))) (and (distinct (_ bv0 32) (bvsmod ?x496 (_ bv100 32))) true)) (= (_ bv0 32) (bvsmod ?x496 (_ bv400 32))))))
 (let (($x2408 (= (_ bv2 32) ?x6002)))
 (let ((?x3975 (ite $x2408 (ite $x3611 (_ bv29 32) (_ bv28 32)) (ite (or $x4339 $x2130 $x4899 $x2472) (_ bv30 32) (_ bv31 32)))))
 (let ((?x5307 (ite (bvsgt (_ bv1 32) x_day) (_ bv1 32) (ite (bvsgt x_day ?x3975) ?x3975 x_day))))
 (let ((?x4730 (ite (bvsgt (_ bv1 32) ?x5307) (_ bv1 32) (ite (bvsgt ?x5307 ?x3975) ?x3975 ?x5307))))
 (let ((?x847 (ite $x2408 (ite $x3611 (_ bv31 32) (_ bv31 32)) (ite (= (_ bv1 32) ?x6002) (ite $x3611 (_ bv0 32) (_ bv0 32)) (_ bv0 32)))))
 (let ((?x5947 (ite $x4339 (ite $x3611 (_ bv91 32) (_ bv90 32)) (ite (= (_ bv3 32) ?x6002) (ite $x3611 (_ bv60 32) (_ bv59 32)) ?x847))))
 (let ((?x1522 (ite $x2130 (ite $x3611 (_ bv152 32) (_ bv151 32)) (ite (= (_ bv5 32) ?x6002) (ite $x3611 (_ bv121 32) (_ bv120 32)) ?x5947))))
 (let ((?x1330 (ite (= (_ bv8 32) ?x6002) (ite $x3611 (_ bv213 32) (_ bv212 32)) (ite (= (_ bv7 32) ?x6002) (ite $x3611 (_ bv182 32) (_ bv181 32)) ?x1522))))
 (let ((?x3973 (ite (= (_ bv10 32) ?x6002) (ite $x3611 (_ bv274 32) (_ bv273 32)) (ite $x4899 (ite $x3611 (_ bv244 32) (_ bv243 32)) ?x1330))))
 (let ((?x5848 (ite (= (_ bv12 32) ?x6002) (ite $x3611 (_ bv335 32) (_ bv334 32)) (ite $x2472 (ite $x3611 (_ bv305 32) (_ bv304 32)) ?x3973))))
 (let ((?x3654 (bvadd (bvmul (_ bv365 32) (bvsub ?x496 (_ bv1 32))) (bvsdiv (bvsub ?x496 (_ bv1 32)) (_ bv4 32)))))
 (let ((?x3691 (bvadd (bvsub ?x3654 (bvsdiv (bvsub ?x496 (_ bv1 32)) (_ bv100 32))) (bvsdiv (bvsub ?x496 (_ bv1 32)) (_ bv400 32)))))
 (let ((?x1210 (bvadd (bvadd (bvsub (bvadd (bvadd ?x3691 ?x5848) (bvsub ?x4730 (_ bv1 32))) (_ bv730179 32)) (_ bv0 32)) (_ bv730179 32))))
 (let ((?x3664 (bvsmod ?x1210 (_ bv146097 32))))
 (let ((?x5971 (bvsdiv ?x3664 (_ bv36524 32))))
 (let ((?x4364 (ite (bvsle (_ bv4 32) ?x5971) (_ bv3 32) ?x5971)))
 (let ((?x5049 (bvsub ?x3664 (bvmul ?x4364 (_ bv36524 32)))))
 (let ((?x5995 (bvsmod ?x5049 (_ bv1461 32))))
 (let ((?x5802 (bvsdiv ?x5995 (_ bv365 32))))
 (let ((?x4696 (ite (bvsle (_ bv4 32) ?x5802) (_ bv3 32) ?x5802)))
 (let ((?x4390 (bvadd (bvadd (bvmul (bvsdiv ?x1210 (_ bv146097 32)) (_ bv400 32)) (bvmul ?x4364 (_ bv100 32))) (bvmul (bvsdiv ?x5049 (_ bv1461 32)) (_ bv4 32)))))
 (let ((?x3570 (bvadd (bvadd ?x4390 ?x4696) (_ bv1 32))))
 (let (($x5797 (or (and (= (_ bv0 32) (bvsmod ?x3570 (_ bv4 32))) (and (distinct (_ bv0 32) (bvsmod ?x3570 (_ bv100 32))) true)) (= (_ bv0 32) (bvsmod ?x3570 (_ bv400 32))))))
 (let ((?x1239 (bvsub ?x5995 (bvmul ?x4696 (_ bv365 32)))))
 (let ((?x2477 (ite $x5797 (_ bv31 32) (_ bv31 32))))
 (let (($x3938 (bvsge ?x1239 ?x2477)))
 (let ((?x5354 (ite $x3938 (bvadd (bvsub ?x1239 ?x2477) (_ bv1 32)) (bvadd (bvsub ?x1239 (ite $x5797 (_ bv0 32) (_ bv0 32))) (_ bv1 32)))))
 (let ((?x3057 (ite $x5797 (_ bv60 32) (_ bv59 32))))
 (let (($x2183 (bvsge ?x1239 ?x3057)))
 (let ((?x4757 (ite $x5797 (_ bv91 32) (_ bv90 32))))
 (let (($x5434 (bvsge ?x1239 ?x4757)))
 (let ((?x1728 (ite $x5434 (bvadd (bvsub ?x1239 ?x4757) (_ bv1 32)) (ite $x2183 (bvadd (bvsub ?x1239 ?x3057) (_ bv1 32)) ?x5354))))
 (let ((?x4238 (ite $x5797 (_ bv121 32) (_ bv120 32))))
 (let (($x1501 (bvsge ?x1239 ?x4238)))
 (let ((?x3469 (ite $x5797 (_ bv152 32) (_ bv151 32))))
 (let (($x3098 (bvsge ?x1239 ?x3469)))
 (let ((?x3073 (ite $x3098 (bvadd (bvsub ?x1239 ?x3469) (_ bv1 32)) (ite $x1501 (bvadd (bvsub ?x1239 ?x4238) (_ bv1 32)) ?x1728))))
 (let ((?x1783 (ite $x5797 (_ bv182 32) (_ bv181 32))))
 (let (($x6059 (bvsge ?x1239 ?x1783)))
 (let ((?x2399 (ite $x5797 (_ bv213 32) (_ bv212 32))))
 (let (($x1479 (bvsge ?x1239 ?x2399)))
 (let ((?x6055 (ite $x1479 (bvadd (bvsub ?x1239 ?x2399) (_ bv1 32)) (ite $x6059 (bvadd (bvsub ?x1239 ?x1783) (_ bv1 32)) ?x3073))))
 (let ((?x4511 (ite $x5797 (_ bv244 32) (_ bv243 32))))
 (let (($x2939 (bvsge ?x1239 ?x4511)))
 (let ((?x5472 (ite $x5797 (_ bv274 32) (_ bv273 32))))
 (let (($x3023 (bvsge ?x1239 ?x5472)))
 (let ((?x3291 (ite $x3023 (bvadd (bvsub ?x1239 ?x5472) (_ bv1 32)) (ite $x2939 (bvadd (bvsub ?x1239 ?x4511) (_ bv1 32)) ?x6055))))
 (let ((?x893 (ite $x5797 (_ bv305 32) (_ bv304 32))))
 (let (($x1248 (bvsge ?x1239 ?x893)))
 (let ((?x630 (ite $x5797 (_ bv335 32) (_ bv334 32))))
 (let (($x1490 (bvsge ?x1239 ?x630)))
 (let ((?x4678 (ite $x1490 (bvadd (bvsub ?x1239 ?x630) (_ bv1 32)) (ite $x1248 (bvadd (bvsub ?x1239 ?x893) (_ bv1 32)) ?x3291))))
 (let (($x4589 (= (_ bv0 32) (_ bv0 32))))
 (let ((?x3860 (ite $x3098 (_ bv6 32) (ite $x1501 (_ bv5 32) (ite $x5434 (_ bv4 32) (ite $x2183 (_ bv3 32) (ite $x3938 (_ bv2 32) (_ bv1 32))))))))
 (let ((?x1820 (ite $x1248 (_ bv11 32) (ite $x3023 (_ bv10 32) (ite $x2939 (_ bv9 32) (ite $x1479 (_ bv8 32) (ite $x6059 (_ bv7 32) ?x3860)))))))
 (and (= y_year (ite $x4589 ?x496 ?x3570)) (= y_month (ite $x4589 ?x6002 (ite $x1490 (_ bv12 32) ?x1820))) (= y_day (ite $x4589 ?x4730 ?x4678)))))))))))))))))))))))))))))))))))))))))))))))))))))))))))))))))))))))
(assert
 (not (and (= (_ bv2021 32) y_year) (= (_ bv2 32) y_month) (= (_ bv28 32) y_day))))
(check-sat)
